\ENCODING=ISO-8859-1
\Problem name: optimointi1harkka

Minimize
 obj: 2061.259 x1 + 1774.702 x2 + 1463.227 x3 + 1124.667 x4 + 756.667 x5
      + 2460.281 m + 100 d1 + 100 d2 + 100 d3 + 100 d4 + 100 d5 + 100 d6
Subject To
 jan: m - 0.06667 x1 - d1 >= 0
 feb: 0.8 x1 - 0.06667 x2 + 0.92 m - d2 >= 0
 mar: 0.736 x1 + 0.8 x2 - 0.06667 x3 + 0.8464 m - d3 >= 0
 apr: 0.6771 x1 + 0.736 x2 + 0.8 x3 - 0.06667 x4 + 0.778688 m - d4 >= 0
 may: 0.623 x1 + 0.6771 x2 + 0.736 x3 + 0.8 x4 - 0.06667 x5 + 0.7164 m - d5 >= 0
 jun: 0.5731 x1 + 0.623 x2 + 0.6771 x3 + 0.736 x4 + 0.8 x5 + 0.6591 m >= 180
Bounds
 m = 145
 d1 = 135
 d2 = 125
 d3 = 150
 d4 = 170
 d5 = 160
 d6 = 180
Generals
 x1 x2 x3 x4 x5
End
